
Gurobi 7.5.2 (linux64, Python) logging started Thu Mar 28 20:30:41 2019

Academic license - for non-commercial use only

Gurobi 7.5.2 (linux64, Python) logging started Thu Mar 28 20:41:15 2019

Academic license - for non-commercial use only

Gurobi 7.5.2 (linux64, Python) logging started Thu Mar 28 20:42:02 2019

Academic license - for non-commercial use only

Gurobi 7.5.2 (linux64, Python) logging started Thu Mar 28 20:42:22 2019

Academic license - for non-commercial use only

Gurobi 7.5.2 (linux64, Python) logging started Thu Mar 28 20:43:06 2019

Academic license - for non-commercial use only

Gurobi 7.5.2 (linux64, Python) logging started Thu Mar 28 20:43:54 2019

Academic license - for non-commercial use only

Gurobi 7.5.2 (linux64, Python) logging started Thu Mar 28 20:45:22 2019

Academic license - for non-commercial use only

Gurobi 7.5.2 (linux64, Python) logging started Thu Mar 28 20:47:41 2019

Academic license - for non-commercial use only

Gurobi 7.5.2 (linux64, Python) logging started Thu Mar 28 20:48:36 2019

Academic license - for non-commercial use only

Gurobi 7.5.2 (linux64, Python) logging started Thu Mar 28 21:07:36 2019

Academic license - for non-commercial use only

Gurobi 7.5.2 (linux64, Python) logging started Thu Mar 28 21:08:55 2019

Academic license - for non-commercial use only

Gurobi 7.5.2 (linux64, Python) logging started Thu Mar 28 21:09:17 2019

Academic license - for non-commercial use only

Gurobi 7.5.2 (linux64, Python) logging started Thu Mar 28 21:09:35 2019

Academic license - for non-commercial use only

Gurobi 7.5.2 (linux64, Python) logging started Thu Mar 28 21:10:35 2019

Academic license - for non-commercial use only

Gurobi 7.5.2 (linux64, Python) logging started Thu Mar 28 21:10:53 2019

Academic license - for non-commercial use only

Gurobi 7.5.2 (linux64, Python) logging started Thu Mar 28 21:11:54 2019

Academic license - for non-commercial use only

Gurobi 7.5.2 (linux64, Python) logging started Thu Mar 28 21:12:05 2019

Academic license - for non-commercial use only

Gurobi 7.5.2 (linux64, Python) logging started Thu Mar 28 21:13:43 2019

Academic license - for non-commercial use only

Gurobi 7.5.2 (linux64, Python) logging started Thu Mar 28 21:14:07 2019

Academic license - for non-commercial use only

Gurobi 7.5.2 (linux64, Python) logging started Thu Mar 28 21:19:33 2019

Academic license - for non-commercial use only

Gurobi 7.5.2 (linux64, Python) logging started Thu Mar 28 21:20:21 2019

Academic license - for non-commercial use only

Gurobi 7.5.2 (linux64, Python) logging started Thu Mar 28 21:21:55 2019

Academic license - for non-commercial use only

Gurobi 7.5.2 (linux64, Python) logging started Thu Mar 28 21:23:22 2019

Academic license - for non-commercial use only

Gurobi 7.5.2 (linux64, Python) logging started Thu Mar 28 21:24:34 2019

Academic license - for non-commercial use only

Gurobi 7.5.2 (linux64, Python) logging started Thu Mar 28 21:29:57 2019

Academic license - for non-commercial use only

Gurobi 7.5.2 (linux64, Python) logging started Thu Mar 28 21:37:33 2019

Academic license - for non-commercial use only

Gurobi 7.5.2 (linux64, Python) logging started Thu Mar 28 21:39:14 2019

Academic license - for non-commercial use only

Gurobi 7.5.2 (linux64, Python) logging started Thu Mar 28 21:41:52 2019

Academic license - for non-commercial use only

Gurobi 7.5.2 (linux64, Python) logging started Thu Mar 28 22:20:26 2019

Academic license - for non-commercial use only

Gurobi 7.5.2 (linux64, Python) logging started Thu Mar 28 22:21:16 2019

Academic license - for non-commercial use only

Gurobi 7.5.2 (linux64, Python) logging started Thu Mar 28 22:22:53 2019

Academic license - for non-commercial use only

Gurobi 7.5.2 (linux64, Python) logging started Thu Mar 28 22:26:18 2019

Academic license - for non-commercial use only

Gurobi 7.5.2 (linux64, Python) logging started Thu Mar 28 22:27:40 2019

Academic license - for non-commercial use only

Gurobi 7.5.2 (linux64, Python) logging started Thu Mar 28 22:28:00 2019

Academic license - for non-commercial use only

Gurobi 7.5.2 (linux64, Python) logging started Thu Mar 28 22:29:13 2019

Academic license - for non-commercial use only

Gurobi 7.5.2 (linux64, Python) logging started Thu Mar 28 22:29:43 2019

Academic license - for non-commercial use only

Gurobi 7.5.2 (linux64, Python) logging started Thu Mar 28 22:30:51 2019

Academic license - for non-commercial use only

Gurobi 7.5.2 (linux64, Python) logging started Thu Mar 28 22:31:02 2019

Academic license - for non-commercial use only

Gurobi 7.5.2 (linux64, Python) logging started Thu Mar 28 22:32:04 2019

Academic license - for non-commercial use only

Gurobi 7.5.2 (linux64, Python) logging started Fri Mar 29 02:14:51 2019

Academic license - for non-commercial use only

Gurobi 7.5.2 (linux64, Python) logging started Fri Mar 29 02:17:12 2019

Academic license - for non-commercial use only

Gurobi 7.5.2 (linux64, Python) logging started Mon Apr 15 22:03:14 2019

Academic license - for non-commercial use only

Gurobi 7.5.2 (linux64, Python) logging started Mon Apr 15 22:04:16 2019

Academic license - for non-commercial use only

Gurobi 7.5.2 (linux64, Python) logging started Mon Apr 15 22:04:50 2019

Academic license - for non-commercial use only

Gurobi 7.5.2 (linux64, Python) logging started Mon Apr 15 22:15:42 2019

Academic license - for non-commercial use only

Gurobi 7.5.2 (linux64, Python) logging started Mon Apr 15 22:21:05 2019

Academic license - for non-commercial use only

Gurobi 7.5.2 (linux64, Python) logging started Mon Apr 15 22:24:40 2019

Academic license - for non-commercial use only

Gurobi 7.5.2 (linux64, Python) logging started Mon Apr 15 22:27:12 2019

Academic license - for non-commercial use only

Gurobi 7.5.2 (linux64, Python) logging started Mon Apr 15 22:30:18 2019

Academic license - for non-commercial use only

Gurobi 7.5.2 (linux64, Python) logging started Mon Apr 15 22:42:55 2019

Academic license - for non-commercial use only

Gurobi 7.5.2 (linux64, Python) logging started Mon Apr 15 22:48:50 2019

Academic license - for non-commercial use only

Gurobi 7.5.2 (linux64, Python) logging started Mon Apr 15 22:49:41 2019

Academic license - for non-commercial use only

Gurobi 7.5.2 (linux64, Python) logging started Mon Apr 15 22:50:05 2019

Academic license - for non-commercial use only

Gurobi 7.5.2 (linux64, Python) logging started Mon Apr 15 22:50:35 2019

Academic license - for non-commercial use only

Gurobi 7.5.2 (linux64, Python) logging started Mon Apr 15 22:52:09 2019

Academic license - for non-commercial use only

Gurobi 7.5.2 (linux64, Python) logging started Mon Apr 15 22:53:00 2019

Academic license - for non-commercial use only

Gurobi 7.5.2 (linux64, Python) logging started Mon Apr 15 22:54:13 2019

Academic license - for non-commercial use only

Gurobi 7.5.2 (linux64, Python) logging started Mon Apr 15 22:56:44 2019

Academic license - for non-commercial use only

Gurobi 7.5.2 (linux64, Python) logging started Mon Apr 15 22:57:22 2019

Academic license - for non-commercial use only

Gurobi 7.5.2 (linux64, Python) logging started Mon Apr 15 22:57:29 2019

Academic license - for non-commercial use only

Gurobi 7.5.2 (linux64, Python) logging started Mon Apr 15 22:57:58 2019

Academic license - for non-commercial use only

Gurobi 7.5.2 (linux64, Python) logging started Mon Apr 15 23:04:17 2019

Academic license - for non-commercial use only

Gurobi 7.5.2 (linux64, Python) logging started Mon Apr 15 23:08:25 2019

Academic license - for non-commercial use only

Gurobi 7.5.2 (linux64, Python) logging started Mon Apr 15 23:10:36 2019

Academic license - for non-commercial use only

Gurobi 7.5.2 (linux64, Python) logging started Mon Apr 15 23:13:07 2019

Academic license - for non-commercial use only

Gurobi 7.5.2 (linux64, Python) logging started Mon Apr 15 23:15:27 2019

Academic license - for non-commercial use only

Gurobi 7.5.2 (linux64, Python) logging started Mon Apr 15 23:16:47 2019

Academic license - for non-commercial use only

Gurobi 7.5.2 (linux64, Python) logging started Mon Apr 15 23:18:04 2019

Academic license - for non-commercial use only

Gurobi 7.5.2 (linux64, Python) logging started Mon Apr 15 23:19:11 2019

Academic license - for non-commercial use only

Gurobi 7.5.2 (linux64, Python) logging started Mon Apr 15 23:19:39 2019

Academic license - for non-commercial use only

Gurobi 7.5.2 (linux64, Python) logging started Mon Apr 15 23:20:06 2019

Academic license - for non-commercial use only

Gurobi 7.5.2 (linux64, Python) logging started Mon Apr 15 23:22:03 2019

Academic license - for non-commercial use only

Gurobi 7.5.2 (linux64, Python) logging started Mon Apr 15 23:23:08 2019

Academic license - for non-commercial use only

Gurobi 7.5.2 (linux64, Python) logging started Mon Apr 15 23:24:27 2019

Academic license - for non-commercial use only

Gurobi 7.5.2 (linux64, Python) logging started Mon Apr 15 23:25:48 2019

Academic license - for non-commercial use only

Gurobi 7.5.2 (linux64, Python) logging started Mon Apr 15 23:27:46 2019

Academic license - for non-commercial use only

Gurobi 7.5.2 (linux64, Python) logging started Mon Apr 15 23:28:34 2019

Academic license - for non-commercial use only

Gurobi 7.5.2 (linux64, Python) logging started Mon Apr 15 23:29:45 2019

Academic license - for non-commercial use only

Gurobi 7.5.2 (linux64, Python) logging started Mon Apr 15 23:32:52 2019

Academic license - for non-commercial use only

Gurobi 7.5.2 (linux64, Python) logging started Mon Apr 15 23:39:38 2019

Academic license - for non-commercial use only

Gurobi 7.5.2 (linux64, Python) logging started Mon Apr 15 23:41:02 2019

Academic license - for non-commercial use only
